%%% static parameters %%%
timespan = 1;
Clients_N = [500];
Demand_W = [15];
Lt0 = [4];
Lt1 = [4];
SS_ = [0.85];
DS_D = [20];
K = [200];
MA = [500];
HC = [0.05];
%%% dynamic parameters %%%
lost_ratio_sales_ret_th = 0.0008928452198978633;
lost_ratio_sales_ret_w = 41;
lost_ratio_sales_dis_th = 8.47032968296535e-05;
lost_ratio_sales_dis_w = 16;
lost_ratio_sales_fac_th = 0.0007674645129124786;
lost_ratio_sales_fac_w = 58;
stock_customer_MA_mean_relative_th = 0.19638103251809325;
stock_customer_MA_mean_relative_w = 58;
stock_distributor_MA_mean_relative_th = 0.703602488352447;
stock_distributor_MA_mean_relative_w = 85;
stock_retailer_MA_mean_relative_th = 0.7022299039500296;
stock_retailer_MA_mean_relative_w = 96;
stock_factory_MA_mean_relative_th = 0.5933847057026421;
stock_factory_MA_mean_relative_w = 20;
